1625430
29,40,63,66,37,6,42,33,45,54,25,65,10,5,22,48,18,41,60,23,2,20,62,1,64,44,26,16,8,57,14,7,67,34,50,38,61,36,52,43,9,17,56,32,13,51,21,30,27,49,35,58,15,47,3,19,46,12,53,0,11,31,55,39,4,59,28,24
